(declare-const X String)
; Host\x3a\s+e2give\.com\s+NETObservemedia\x2Edxcdirect\x2EcomSubject\x3Aquick\x2Eqsrch\x2Ecom
(assert (str.in_re X (re.++ (str.to_re "Host:") (re.+ (re.union (str.to_re " ") (str.to_re "\u{9}") (str.to_re "\u{a}") (str.to_re "\u{c}") (str.to_re "\u{d}"))) (str.to_re "e2give.com") (re.+ (re.union (str.to_re " ") (str.to_re "\u{9}") (str.to_re "\u{a}") (str.to_re "\u{c}") (str.to_re "\u{d}"))) (str.to_re "NETObservemedia.dxcdirect.comSubject:quick.qsrch.com\u{a}"))))
; ^[\w\.=-]+@[\w\.-]+\.[\w]{2,3}$
(assert (str.in_re X (re.++ (re.+ (re.union (str.to_re ".") (str.to_re "=") (str.to_re "-") (re.range "0" "9") (re.range "A" "Z") (re.range "a" "z") (str.to_re "_"))) (str.to_re "@") (re.+ (re.union (str.to_re ".") (str.to_re "-") (re.range "0" "9") (re.range "A" "Z") (re.range "a" "z") (str.to_re "_"))) (str.to_re ".") ((_ re.loop 2 3) (re.union (re.range "0" "9") (re.range "A" "Z") (re.range "a" "z") (str.to_re "_"))) (str.to_re "\u{a}"))))
; &[a-zA-Z]+\d{0,3};
(assert (str.in_re X (re.++ (str.to_re "&") (re.+ (re.union (re.range "a" "z") (re.range "A" "Z"))) ((_ re.loop 0 3) (re.range "0" "9")) (str.to_re ";\u{a}"))))
(check-sat)

(exit)
